words_hard_train/7749.qaiger
aag 111 24 0 1 87
2
4
12
20
24
26
34
42
44
48
52
56
60
70
72
80
88
102
104
112
130
144
154
172
223
6 2 5
8 3 4
10 7 9
14 10 13
16 11 12
18 15 17
22 18 21
28 24 27
30 25 26
32 29 31
36 32 35
38 33 34
40 37 39
46 43 45
50 46 49
54 50 53
58 54 57
62 59 60
64 58 61
66 63 65
68 40 66
74 70 73
76 71 72
78 75 77
82 78 81
84 79 80
86 83 85
90 65 88
92 64 89
94 91 93
96 86 94
98 69 97
100 41 67
106 102 105
108 103 104
110 107 109
114 110 113
116 111 112
118 115 117
120 55 56
122 121 59
124 119 123
126 101 125
128 118 122
132 110 131
134 111 130
136 133 135
138 51 52
140 139 55
142 137 141
146 11 145
148 10 144
150 147 149
152 150 42
156 78 155
158 79 154
160 157 159
162 160 45
164 152 163
166 165 47
168 161 44
170 166 169
174 32 173
176 33 172
178 175 177
180 47 48
182 181 51
184 178 182
186 171 185
188 143 187
190 179 183
192 188 191
194 129 193
196 136 140
198 194 197
200 126 199
202 98 201
204 87 95
206 203 205
208 206 92
210 22 209
212 19 20
214 213 93
216 215 209
218 213 206
220 217 219
222 211 221
i0 2 y2[0]
i1 2 y2[7]
i2 1 x2[7]
i3 1 x1[7]
i4 2 y2[2]
i5 2 y2[5]
i6 1 x2[5]
i7 1 x1[0]
i8 1 x1[1]
i9 1 x1[2]
i10 1 x1[3]
i11 1 x1[4]
i12 1 x1[5]
i13 2 y2[1]
i14 2 y2[6]
i15 1 x2[6]
i16 1 x1[6]
i17 2 y2[3]
i18 2 y2[4]
i19 1 x2[4]
i20 1 x2[3]
i21 1 x2[0]
i22 1 x2[1]
i23 1 x2[2]
o0 bv[0]
c
simplified
  <
    xor
      1 x2
      xor
        2 y2
        reverse
          2 y2
    1 x1
