words_hard_train/7749.qaiger.qdimacs
p cnf 111 262
a 65 56 6 40 72 10 44 77 17 21 22 86 24 26 28 30 0
e 1 2 3 4 5 7 8 9 11 12 13 14 15 16 18 19 20 23 25 27 29 31 32 33 34 35 36 37 38 39 41 42 43 45 46 47 48 49 50 51 52 53 54 55 57 58 59 60 61 62 63 64 66 67 68 69 70 71 73 74 75 76 78 79 80 81 82 83 84 85 87 88 89 90 91 92 93 94 95 96 97 98 99 100 101 102 103 104 105 106 107 108 109 110 111 0
-1 2 3 0
1 -3 0
-2 -3 0
1 -2 4 0
-1 -4 0
2 -4 0
3 4 5 0
-3 -5 0
-4 -5 0
-5 6 7 0
5 -7 0
-6 -7 0
5 -6 8 0
-5 -8 0
6 -8 0
7 8 9 0
-7 -9 0
-8 -9 0
-9 10 11 0
9 -11 0
-10 -11 0
-12 13 14 0
12 -14 0
-13 -14 0
12 -13 15 0
-12 -15 0
13 -15 0
14 15 16 0
-14 -16 0
-15 -16 0
-16 17 18 0
16 -18 0
-17 -18 0
16 -17 19 0
-16 -19 0
17 -19 0
18 19 20 0
-18 -20 0
-19 -20 0
21 22 23 0
-21 -23 0
-22 -23 0
-23 24 25 0
23 -25 0
-24 -25 0
-25 26 27 0
25 -27 0
-26 -27 0
-27 28 29 0
27 -29 0
-28 -29 0
29 -30 31 0
-29 -31 0
30 -31 0
-29 30 32 0
29 -32 0
-30 -32 0
31 32 33 0
-31 -33 0
-32 -33 0
-20 -33 34 0
20 -34 0
33 -34 0
-35 36 37 0
35 -37 0
-36 -37 0
35 -36 38 0
-35 -38 0
36 -38 0
37 38 39 0
-37 -39 0
-38 -39 0
-39 40 41 0
39 -41 0
-40 -41 0
39 -40 42 0
-39 -42 0
40 -42 0
41 42 43 0
-41 -43 0
-42 -43 0
32 -44 45 0
-32 -45 0
44 -45 0
-32 44 46 0
32 -46 0
-44 -46 0
45 46 47 0
-45 -47 0
-46 -47 0
-43 -47 48 0
43 -48 0
47 -48 0
34 48 49 0
-34 -49 0
-48 -49 0
20 33 50 0
-20 -50 0
-33 -50 0
-51 52 53 0
51 -53 0
-52 -53 0
51 -52 54 0
-51 -54 0
52 -54 0
53 54 55 0
-53 -55 0
-54 -55 0
-55 56 57 0
55 -57 0
-56 -57 0
55 -56 58 0
-55 -58 0
56 -58 0
57 58 59 0
-57 -59 0
-58 -59 0
27 -28 60 0
-27 -60 0
28 -60 0
60 29 61 0
-60 -61 0
-29 -61 0
59 61 62 0
-59 -62 0
-61 -62 0
50 62 63 0
-50 -63 0
-62 -63 0
-59 -61 64 0
59 -64 0
61 -64 0
-55 65 66 0
55 -66 0
-65 -66 0
55 -65 67 0
-55 -67 0
65 -67 0
66 67 68 0
-66 -68 0
-67 -68 0
25 -26 69 0
-25 -69 0
26 -69 0
69 27 70 0
-69 -70 0
-27 -70 0
68 70 71 0
-68 -71 0
-70 -71 0
5 72 73 0
-5 -73 0
-72 -73 0
-5 -72 74 0
5 -74 0
72 -74 0
73 74 75 0
-73 -75 0
-74 -75 0
-75 -21 76 0
75 -76 0
21 -76 0
-39 77 78 0
39 -78 0
-77 -78 0
39 -77 79 0
-39 -79 0
77 -79 0
78 79 80 0
-78 -80 0
-79 -80 0
-80 22 81 0
80 -81 0
-22 -81 0
-76 81 82 0
76 -82 0
-81 -82 0
82 23 83 0
-82 -83 0
-23 -83 0
80 -22 84 0
-80 -84 0
22 -84 0
-83 84 85 0
83 -85 0
-84 -85 0
-16 86 87 0
16 -87 0
-86 -87 0
16 -86 88 0
-16 -88 0
86 -88 0
87 88 89 0
-87 -89 0
-88 -89 0
23 -24 90 0
-23 -90 0
24 -90 0
90 25 91 0
-90 -91 0
-25 -91 0
-89 -91 92 0
89 -92 0
91 -92 0
85 92 93 0
-85 -93 0
-92 -93 0
71 93 94 0
-71 -94 0
-93 -94 0
89 91 95 0
-89 -95 0
-91 -95 0
-94 95 96 0
94 -96 0
-95 -96 0
64 96 97 0
-64 -97 0
-96 -97 0
-68 -70 98 0
68 -98 0
70 -98 0
-97 98 99 0
97 -99 0
-98 -99 0
-63 99 100 0
63 -100 0
-99 -100 0
-49 100 101 0
49 -101 0
-100 -101 0
43 47 102 0
-43 -102 0
-47 -102 0
101 102 103 0
-101 -103 0
-102 -103 0
-103 -46 104 0
103 -104 0
46 -104 0
-11 104 105 0
11 -105 0
-104 -105 0
9 -10 106 0
-9 -106 0
10 -106 0
106 46 107 0
-106 -107 0
-46 -107 0
107 104 108 0
-107 -108 0
-104 -108 0
106 -103 109 0
-106 -109 0
103 -109 0
108 109 110 0
-108 -110 0
-109 -110 0
105 110 111 0
-105 -111 0
-110 -111 0
-111 0
